/*********************************************
    * Lab01 - FCR
    * Author: Coso
    * Creation Date: Mar, 2019
    *********************************************/
instance_name = "small_instance_10_FCR";

d = 2;
r = 3;

SCj = [153 114];
Dk = [31 54 54];

Cjk = [[34 70 41]
 [69 85 34]];
Fjk = [[626 752 419]
 [750 397 691]];
